
List of user-set options:

                                    Name   Value                used
                           compl_inf_tol = 1                     yes
                         constr_viol_tol = 1                     yes
                            dual_inf_tol = 1000                  yes
                           linear_solver = ma97                  yes
                              ma86_small = 1e-30                  no
                                  ma86_u = 0.0001                 no
                              ma97_order = best                  yes
                              ma97_small = 1e-30                 yes
                            ma97_switch1 = at_start              yes
                            ma97_switch2 = od_hd_reuse           yes
                                  ma97_u = 1e-06                 yes
                               ma97_umax = 0.5                   yes
                                max_iter = 1000                  yes
                    max_refinement_steps = 20                    yes
                    min_refinement_steps = 5                     yes
                                 mu_init = 1e-06                 yes
           mu_superlinear_decrease_power = 1.25                  yes
                   nlp_scaling_min_value = 1e-08                 yes
                        option_file_name = Preset_Case:_838_NCP.opt  yes
                             output_file = ./tmp/Preset_Case:_838_NCP.output  yes
                      print_user_options = yes                   yes
        required_infeasibility_reduction = 1                      no
                                     tol = 1e-08                 yes
                   warm_start_bound_frac = 1e-20                 yes
                   warm_start_bound_push = 1e-20                 yes
                   warm_start_init_point = yes                   yes
              warm_start_mult_bound_push = 1e-20                 yes
                warm_start_mult_init_max = 1e+40                 yes
             warm_start_slack_bound_frac = 1e-20                 yes
             warm_start_slack_bound_push = 1e-20                 yes

******************************************************************************
This program contains Ipopt, a library for large-scale nonlinear optimization.
 Ipopt is released as open source code under the Eclipse Public License (EPL).
         For more information visit http://projects.coin-or.org/Ipopt
******************************************************************************

This is Ipopt version 3.12.10, running with linear solver ma97.

Number of nonzeros in equality constraint Jacobian...:   117167
Number of nonzeros in inequality constraint Jacobian.:      213
Number of nonzeros in Lagrangian Hessian.............:    47513

Total number of variables............................:    29977
                     variables with only lower bounds:    11312
                variables with lower and upper bounds:    15135
                     variables with only upper bounds:        0
Total number of equality constraints.................:    29864
Total number of inequality constraints...............:       25
        inequality constraints with only lower bounds:        4
   inequality constraints with lower and upper bounds:        0
        inequality constraints with only upper bounds:       21

iter    objective    inf_pr   inf_du lg(mu)  ||d||  lg(rg) alpha_du alpha_pr  ls
   0 -1.4072747e-01 1.15e-01 2.00e+00  -6.0 0.00e+00    -  0.00e+00 0.00e+00   0
In iteration 0, 9 Slacks too small, adjusting variable bounds
   1 -1.4072747e-01 1.15e-01 5.19e+02  -6.0 1.08e+10    -  5.18e-14 7.31e-19h  1
   2 -1.4072706e-01 1.15e-01 5.19e+02  -6.0 2.50e+02    -  4.20e-03 9.08e-06f  1
   3 -1.4062924e-01 1.15e-01 5.19e+02  -6.0 1.54e+02    -  2.22e-02 3.48e-03h  1
   4 -1.4052848e-01 1.13e-01 5.14e+02  -6.0 1.87e+02    -  5.50e-02 1.42e-02h  1
   5r-1.4052848e-01 1.13e-01 9.99e+02  -0.9 0.00e+00    -  0.00e+00 2.68e-07R  5
   6r-1.4032912e-01 1.13e-01 1.10e+03  -0.9 3.31e+04    -  1.67e-06 1.65e-06f  1
   7 -1.4022926e-01 1.11e-01 1.28e+07  -6.0 4.44e+01    -  1.47e-01 1.78e-02h  1
   8 -1.3923806e-01 9.19e-02 1.38e+08  -6.0 4.45e+01    -  1.78e-02 1.74e-01h  1
   9 -1.3909693e-01 9.04e-02 1.36e+08  -6.0 3.77e+01    -  1.45e-01 1.55e-02h  1
iter    objective    inf_pr   inf_du lg(mu)  ||d||  lg(rg) alpha_du alpha_pr  ls
  10 -1.3665908e-01 7.73e-02 1.16e+08  -6.0 4.47e+01    -  1.01e-01 1.45e-01h  1
  11 -1.3469693e-01 7.08e-02 1.07e+08  -6.0 3.20e+01    -  3.45e-02 8.40e-02h  3
  12 -1.3182768e-01 7.10e-02 9.04e+07  -6.0 2.83e+01    -  1.20e-01 1.53e-01h  2
  13 -1.2950433e-01 8.19e-02 7.67e+07  -6.0 2.40e+01    -  1.64e-01 1.51e-01h  2
  14 -1.2743573e-01 8.71e-02 6.41e+07  -6.0 2.06e+01    -  3.97e-01 1.65e-01h  2
  15 -1.2575596e-01 8.87e-02 5.26e+07  -6.0 1.75e+01    -  6.04e-01 1.80e-01h  2
  16 -1.1854436e-01 8.86e-02 4.03e+05  -6.0 1.38e+01    -  7.58e-02 1.00e+00H  1
  17 -1.1981238e-01 1.38e-02 8.78e+03  -6.0 1.55e+00    -  6.29e-01 1.00e+00h  1
  18 -1.2364909e-01 1.37e-02 3.07e+03  -6.0 7.12e+00    -  6.91e-01 1.00e+00h  1
  19 -1.2435402e-01 1.42e-02 1.34e+04  -6.0 1.80e+01    -  2.54e-01 8.74e-02h  1
iter    objective    inf_pr   inf_du lg(mu)  ||d||  lg(rg) alpha_du alpha_pr  ls
  20 -1.2855977e-01 3.04e-02 3.49e+04  -6.0 1.69e+01    -  3.68e-01 5.78e-01F  1
  21r-1.2855977e-01 3.04e-02 1.00e+03  -1.7 0.00e+00    -  0.00e+00 3.09e-07R  5
  22r-1.2829635e-01 2.71e-02 1.00e+03  -1.7 1.64e+03    -  1.52e-04 1.08e-04f  1
  23 -1.2850398e-01 3.04e-03 7.08e+07  -6.0 3.21e-01    -  1.72e-01 8.87e-01h  1
  24 -1.2855001e-01 1.67e-03 4.70e+07  -6.0 1.61e-01    -  8.87e-01 4.54e-01h  1
  25 -1.2929763e-01 1.92e-03 5.60e+02  -6.0 1.54e+00    -  4.04e-01 1.00e+00f  1
  26 -1.3054493e-01 5.66e-03 1.98e+01  -6.0 2.64e+00    -  5.81e-01 1.00e+00h  1
  27 -1.3348756e-01 3.13e-02 1.09e+01  -6.0 6.37e+00    -  4.49e-01 1.00e+00h  1
  28 -1.3867996e-01 1.07e-01 8.21e+00  -6.0 1.15e+01    -  2.48e-01 1.00e+00h  1
  29 -1.4571181e-01 2.51e-01 5.80e+00  -6.0 1.51e+01    -  6.51e-01 1.00e+00h  1
iter    objective    inf_pr   inf_du lg(mu)  ||d||  lg(rg) alpha_du alpha_pr  ls
  30 -1.5045913e-01 2.42e-01 5.65e+00  -6.0 3.65e+01    -  2.91e-01 3.19e-01h  1
  31 -1.5409722e-01 1.67e-01 2.91e+01  -6.0 4.49e+01    -  4.00e-04 3.00e-01h  1
  32 -1.6358136e-01 4.17e-01 5.25e+01  -6.0 4.15e+01    -  1.13e-01 1.00e+00h  1
  33 -1.6520528e-01 3.59e-01 3.69e+01  -6.0 4.27e+01    -  4.75e-01 1.51e-01h  1
  34 -1.7681839e-01 1.29e+00 1.74e+01  -6.0 9.08e+01    -  4.93e-01 6.20e-01h  1
  35 -1.7886832e-01 1.30e+00 1.68e+01  -6.0 1.89e+02    -  4.01e-01 5.09e-02h  1
  36 -1.8560483e-01 2.17e+00 3.73e+01  -6.0 2.58e+02    -  3.28e-01 1.06e-01h  1
  37 -1.8875429e-01 2.02e+00 2.74e+01  -6.0 2.30e+02    -  4.42e-02 1.34e-01h  1
  38 -1.9099817e-01 1.97e+00 3.75e+01  -6.0 2.66e+02    -  3.44e-01 9.83e-02h  1
  39 -1.9348348e-01 1.87e+00 3.37e+01  -6.0 4.14e+02    -  1.46e-01 1.08e-01h  1
iter    objective    inf_pr   inf_du lg(mu)  ||d||  lg(rg) alpha_du alpha_pr  ls
  40 -1.9548599e-01 1.71e+00 5.34e+01  -6.0 4.60e+02    -  4.26e-01 9.78e-02h  1
  41 -2.0173390e-01 1.07e+01 9.96e+01  -6.0 6.96e+02    -  3.37e-01 2.93e-01h  1
  42 -2.0304706e-01 9.52e+00 7.06e+01  -6.0 5.22e+02    -  4.02e-01 1.16e-01h  1
  43 -2.0433733e-01 8.69e+00 9.14e+01  -6.0 8.51e+02    -  3.59e-01 8.85e-02h  1
  44 -2.0866279e-01 6.38e+00 4.45e+01  -6.0 1.16e+03    -  1.06e-01 2.72e-01h  1
  45 -2.1104019e-01 5.32e+00 1.07e+02  -6.0 1.69e+03    -  4.15e-01 1.59e-01h  1
  46 -2.1084738e-01 3.41e+00 1.11e+02  -6.0 1.33e+00  -4.0 1.22e-01 3.59e-01h  1
  47 -2.1077255e-01 2.53e+00 2.68e+01  -6.0 1.15e+00  -4.5 6.23e-01 2.57e-01h  1
  48 -2.1064947e-01 3.62e-03 1.99e+01  -6.0 1.88e+00  -5.0 1.00e+00 1.00e+00h  1
  49 -2.1083391e-01 4.02e-03 9.93e+00  -6.0 3.79e+00  -5.4 1.00e+00 6.25e-01h  1
iter    objective    inf_pr   inf_du lg(mu)  ||d||  lg(rg) alpha_du alpha_pr  ls
  50 -2.1103127e-01 1.44e-02 1.18e+01  -6.0 3.90e+00  -5.9 1.00e+00 6.40e-01f  1
  51 -2.1133710e-01 4.42e-01 6.54e+00  -6.0 1.10e+01  -6.4 6.16e-01 1.00e+00f  1
  52 -2.1154808e-01 4.65e-02 7.58e-01  -6.0 4.87e+00  -6.0 1.00e+00 1.00e+00h  1
  53 -2.1157756e-01 4.44e-02 6.42e+00  -6.0 1.21e+01  -6.4 1.00e+00 6.21e-02h  1
  54 -2.1211430e-01 8.59e-02 6.55e+00  -6.0 3.55e+01  -6.9 1.00e+00 5.84e-01h  1
  55 -2.1294712e-01 1.13e-01 1.42e+01  -6.0 9.73e+01  -7.4 5.69e-01 3.39e-01h  1
  56 -2.1458022e-01 1.20e+00 2.78e+01  -6.0 3.75e+02  -7.9 7.30e-01 2.57e-01h  1
  57 -2.1489989e-01 1.53e-02 2.36e-02  -6.0 1.54e+01  -6.5 1.00e+00 1.00e+00h  1
  58 -2.1539074e-01 5.89e-02 3.10e+00  -6.0 4.57e+01  -7.0 1.00e+00 5.92e-01h  1
  59 -2.1716658e-01 9.81e-01 1.07e+01  -6.0 1.38e+02  -7.5 1.00e+00 6.87e-01h  1
iter    objective    inf_pr   inf_du lg(mu)  ||d||  lg(rg) alpha_du alpha_pr  ls
  60 -2.2060777e-01 2.56e+00 1.47e+01  -6.0 4.57e+02  -8.0 3.09e-01 6.02e-01h  1
  61 -2.2063632e-01 2.53e+00 1.45e+02  -6.0 2.75e+02  -7.5 1.00e+00 1.20e-02h  1
  62 -2.2155824e-01 2.12e+00 1.23e+02  -6.0 3.08e+02  -8.0 2.41e-01 1.74e-01h  1
  63 -2.2375685e-01 1.84e+00 9.97e+01  -6.0 7.77e+02  -8.5 3.01e-01 2.04e-01h  1
  64 -2.2457087e-01 1.64e+01 9.60e+01  -6.0 8.16e+02  -7.2 2.84e-03 2.61e-02h  1
  65 -2.2481787e-01 1.82e+01 8.91e+01  -6.0 2.14e+02  -6.7 6.67e-02 3.11e-02h  1
  66 -2.2522790e-01 6.99e+00 1.16e+02  -6.0 5.29e+01  -7.2 1.27e-01 7.08e-01h  1
  67 -2.2523306e-01 6.60e+00 7.55e+01  -6.0 1.25e+01  -5.9 4.35e-01 5.54e-02h  1
  68 -2.2534890e-01 3.92e+00 2.99e+01  -6.0 1.31e+01  -6.4 8.49e-01 4.52e-01h  1
  69 -2.2538508e-01 1.73e+00 1.31e+01  -6.0 5.69e+00  -5.9 5.36e-01 5.85e-01h  1
iter    objective    inf_pr   inf_du lg(mu)  ||d||  lg(rg) alpha_du alpha_pr  ls
  70 -2.2539967e-01 1.18e+00 1.60e+00  -6.0 6.64e+00  -6.4 7.84e-01 3.43e-01h  1
  71 -2.2552429e-01 1.56e+00 1.54e+00  -6.0 1.96e+01  -6.9 1.00e+00 6.47e-01h  1
  72 -2.2596575e-01 5.26e+00 4.39e+00  -6.0 5.71e+01  -7.4 1.00e+00 8.40e-01h  1
  73 -2.2718609e-01 9.62e-01 9.90e-01  -6.0 1.60e+02  -7.9 1.00e+00 1.00e+00h  1
  74 -2.2999959e-01 4.14e+00 9.71e-01  -6.0 4.61e+02  -8.3 1.00e+00 1.00e+00h  1
  75 -2.3097970e-01 4.01e+00 1.56e+01  -6.0 1.00e+03  -8.8 1.00e+00 1.80e-01h  1
  76 -2.3193806e-01 8.06e-01 2.34e+00  -6.0 2.16e+02  -8.4 7.60e-01 1.00e+00h  1
  77 -2.3194968e-01 2.84e-02 4.48e-01  -6.0 1.26e+01  -6.1 8.55e-01 1.00e+00h  1
  78 -2.3198199e-01 6.06e-03 6.65e-03  -6.0 6.93e+00  -6.6 1.00e+00 1.00e+00h  1
  79 -2.3209610e-01 2.93e-02 4.30e-03  -6.0 2.40e+01  -7.1 1.00e+00 1.00e+00h  1
iter    objective    inf_pr   inf_du lg(mu)  ||d||  lg(rg) alpha_du alpha_pr  ls
  80 -2.3243679e-01 9.31e-02 2.99e-02  -6.0 7.03e+01  -7.6 1.00e+00 1.00e+00h  1
  81 -2.3338359e-01 6.98e-01 2.49e-01  -6.0 1.93e+02  -8.1 1.00e+00 1.00e+00h  1
  82 -2.3569858e-01 3.42e+00 3.06e+00  -6.0 4.29e+02  -8.5 1.00e+00 1.00e+00h  1
  83 -2.4116909e-01 7.01e+00 9.94e+01  -6.0 1.69e+03  -9.0 5.83e-01 1.00e+00h  1
  84 -2.4256554e-01 2.31e+01 1.83e+02  -6.0 9.17e+02  -8.6 1.60e-01 3.68e-01h  1
  85 -2.4265657e-01 2.29e+01 1.23e+02  -6.0 1.18e+03  -9.1 2.93e-01 9.34e-03h  1
  86 -2.4443005e-01 2.03e+01 1.43e+02  -6.0 3.86e+03  -9.5 3.93e-02 1.14e-01h  1
  87 -2.4624933e-01 1.97e+01 1.38e+02  -6.0 2.42e+04 -10.0 2.71e-02 2.90e-02h  1
  88 -2.4829426e-01 1.27e+01 1.20e+02  -6.0 3.12e+03  -9.6 2.10e-01 3.95e-01h  1
  89 -2.5024289e-01 3.07e+01 8.18e+01  -6.0 4.23e+03 -10.1 4.98e-02 2.65e-01h  1
iter    objective    inf_pr   inf_du lg(mu)  ||d||  lg(rg) alpha_du alpha_pr  ls
  90 -2.5039936e-01 2.98e+01 7.94e+01  -6.0 2.96e+03  -9.6 6.31e-02 3.24e-02h  1
  91 -2.5045693e-01 3.86e+01 7.82e+01  -6.0 4.06e+04 -10.1 2.28e-02 1.59e-02h  1
  92 -2.5141940e-01 2.88e+01 5.55e+01  -6.0 1.19e+03  -9.7 1.02e-01 3.35e-01h  1
  93 -2.5152845e-01 2.66e+01 6.78e+01  -6.0 4.83e+02  -9.3 3.58e-01 7.77e-02h  1
  94 -2.5219255e-01 1.34e+00 1.41e+02  -6.0 2.16e+02  -8.8 1.39e-01 1.00e+00h  1
  95 -2.5233103e-01 1.22e+00 1.28e+02  -6.0 5.41e+02  -9.3 4.56e-01 1.12e-01h  1
  96 -2.5299493e-01 1.32e+00 9.36e+01  -6.0 2.21e+02  -8.9 5.50e-01 1.00e+00h  1
  97 -2.5329694e-01 3.91e+00 1.73e+02  -6.0 4.94e+02  -9.4 3.83e-01 2.23e-01h  1
  98 -2.5383496e-01 3.20e+00 2.47e+01  -6.0 2.06e+02  -8.9 7.40e-01 7.49e-01h  1
  99 -2.5425601e-01 1.83e+00 1.15e+03  -6.0 4.83e+02  -9.4 7.69e-01 4.53e-01h  1
iter    objective    inf_pr   inf_du lg(mu)  ||d||  lg(rg) alpha_du alpha_pr  ls
 100 -2.5482187e-01 1.15e+00 4.30e+01  -6.0 1.80e+02  -9.0 1.00e+00 1.00e+00h  1
 101 -2.5522168e-01 3.07e+00 1.95e+03  -6.0 6.72e+02  -9.5 1.89e-01 5.62e-01h  1
 102 -2.5523583e-01 9.40e-01 1.51e+06  -6.0 2.23e+02  -9.0 5.93e-03 1.00e+00h  1
 103 -2.5547847e-01 6.94e+00 2.33e+05  -6.0 7.04e+02  -9.5 6.67e-01 8.45e-01h  1
 104 -2.5567297e-01 9.03e+00 2.08e+05  -6.0 7.06e+03 -10.0 1.26e-04 1.09e-01H  1
 105 -2.5565554e-01 1.17e+01 1.99e+05  -6.0 1.01e+04  -9.6 7.85e-02 4.07e-02h  3
 106 -2.5584679e-01 2.11e+00 1.36e+02  -6.0 3.05e+02  -9.1 5.90e-01 1.00e+00h  1
 107 -2.5609229e-01 2.71e+00 4.59e+00  -6.0 1.74e+02  -8.7 7.58e-01 1.00e+00h  1
 108 -2.5638078e-01 1.02e+01 1.56e+01  -6.0 1.36e+03  -9.2 3.37e-01 2.23e-01h  1
 109 -2.5638251e-01 1.01e+01 1.53e+01  -6.0 1.94e+03  -9.7 1.36e-01 1.25e-02h  1
iter    objective    inf_pr   inf_du lg(mu)  ||d||  lg(rg) alpha_du alpha_pr  ls
 110 -2.5631122e-01 4.46e+00 6.65e+00  -6.0 9.13e+01  -8.3 5.27e-01 5.56e-01f  1
 111 -2.5633977e-01 1.05e+00 1.95e+00  -6.0 1.85e+02  -8.8 1.00e+00 7.66e-01h  1
 112 -2.5632929e-01 1.98e-03 2.23e-01  -6.0 1.57e+01  -7.5 9.38e-01 1.00e+00h  1
 113 -2.5632116e-01 7.05e-03 1.16e-01  -6.0 1.09e+02  -8.0 4.80e-01 4.57e-01h  1
 114 -2.5632731e-01 6.45e-03 2.11e+00  -6.0 3.97e+01  -8.4 1.92e-02 1.55e-01h  2
 115 -2.5630510e-01 4.86e-03 4.80e+00  -6.0 7.08e+00  -6.2 1.00e+00 6.79e-01h  1
 116 -2.5631612e-01 4.06e-04 1.30e-02  -6.0 4.17e+00  -6.7 1.00e+00 1.00e+00f  1
 117 -2.5632199e-01 2.89e-04 6.18e-02  -6.0 2.58e+00  -7.2 1.00e+00 1.00e+00h  1
 118 -2.5631987e-01 3.58e-04 1.56e-03  -6.0 5.65e+00  -7.6 1.00e+00 1.00e+00h  1
 119 -2.5632109e-01 1.64e-03 9.13e-04  -6.0 1.73e+01  -8.1 1.00e+00 1.00e+00h  1
iter    objective    inf_pr   inf_du lg(mu)  ||d||  lg(rg) alpha_du alpha_pr  ls
 120 -2.5633310e-01 9.75e-03 5.03e-03  -6.0 5.07e+01  -8.6 1.00e+00 1.00e+00h  1
 121 -2.5639049e-01 1.05e-01 5.95e-02  -6.0 1.50e+02  -9.1 1.00e+00 1.00e+00h  1
 122 -2.5661989e-01 1.20e+00 5.65e-01  -6.0 4.81e+02  -9.6 1.00e+00 1.00e+00h  1
 123 -2.5673642e-01 2.63e-01 1.31e-01  -6.0 1.98e+02  -9.1 1.00e+00 1.00e+00h  1
 124 -2.5700179e-01 1.84e+00 9.27e+00  -6.0 1.22e+03  -9.6 9.40e-01 7.16e-01h  1
 125 -2.5724660e-01 1.11e+00 1.74e+00  -6.0 4.97e+02  -9.2 1.00e+00 1.00e+00h  1
 126 -2.5761870e-01 2.46e+00 2.13e+01  -6.0 1.15e+04  -9.7 6.85e-02 6.21e-02h  1
 127 -2.5846125e-01 8.98e+00 5.47e+02  -6.0 1.19e+03  -9.2 3.83e-01 1.00e+00h  1
 128 -2.5861152e-01 8.04e+00 1.01e+02  -6.0 7.16e+02  -9.7 2.95e-01 1.68e-01h  1
 129 -2.5880341e-01 8.12e+00 2.38e+01  -6.0 1.80e+03 -10.2 1.89e-01 2.00e-01h  1
iter    objective    inf_pr   inf_du lg(mu)  ||d||  lg(rg) alpha_du alpha_pr  ls
 130 -2.5880616e-01 8.11e+00 5.35e+01  -6.0 4.98e+05    -  4.61e-03 1.46e-03h  2
 131 -2.5881216e-01 8.13e+00 5.27e+01  -6.0 1.04e+04 -10.7 8.03e-03 8.05e-03h  2
 132 -2.5912211e-01 4.58e+01 3.38e+03  -6.0 9.71e+03 -11.1 5.09e-01 1.80e-01h  1
 133 -2.5916124e-01 5.01e+01 3.43e+03  -6.0 6.62e+04    -  4.26e-02 2.94e-02h  1
 134 -2.5925014e-01 4.72e+01 5.31e+03  -6.0 5.89e+03    -  2.79e-01 5.90e-02h  1
 135 -2.5933718e-01 3.81e+01 3.78e+03  -6.0 5.02e+02  -9.8 7.74e-02 1.94e-01h  1
 136 -2.5943979e-01 3.16e+01 2.48e+03  -6.0 1.10e+03 -10.3 1.14e-01 1.69e-01h  1
 137 -2.5980801e-01 2.30e+01 3.00e+03  -6.0 4.19e+03    -  9.92e-02 2.74e-01h  1
 138 -2.6033103e-01 4.95e+00 5.80e+06  -6.0 5.42e+02  -9.9 2.78e-03 1.00e+00h  1
 139 -2.6034153e-01 3.74e+00 4.22e+06  -6.0 7.07e+02 -10.3 7.43e-01 2.71e-01h  1
iter    objective    inf_pr   inf_du lg(mu)  ||d||  lg(rg) alpha_du alpha_pr  ls
 140 -2.6036827e-01 1.20e+01 3.64e+06  -6.0 5.16e+03    -  8.33e-02 1.38e-01h  1
 141 -2.6039026e-01 1.25e+00 5.22e+02  -6.0 2.12e+03    -  7.13e-01 1.00e+00h  1
 142 -2.6043571e-01 1.45e+00 3.12e+02  -6.0 5.51e+02    -  4.70e-01 3.95e-01h  1
 143 -2.6045469e-01 3.13e+00 5.69e+01  -6.0 3.55e+02    -  4.77e-01 8.23e-01h  1
 144 -2.6043832e-01 1.17e+00 6.11e+00  -6.0 2.58e+02    -  1.00e+00 8.94e-01h  1
 145 -2.6045333e-01 1.22e+00 1.18e+00  -6.0 1.68e+02    -  1.00e+00 1.00e+00h  1
 146 -2.6047572e-01 1.77e-01 9.33e-01  -6.0 1.02e+02    -  1.00e+00 1.00e+00h  1
 147 -2.6048553e-01 1.86e-01 3.97e+01  -6.0 1.86e+02  -9.9 4.24e-01 6.11e-02h  3
 148 -2.6050406e-01 2.18e-01 1.41e+01  -6.0 8.27e+01  -9.5 1.00e+00 1.48e-01h  2
 149 -2.6050716e-01 2.18e-01 3.50e+01  -6.0 1.14e+03    -  3.28e-01 5.09e-02h  3
iter    objective    inf_pr   inf_du lg(mu)  ||d||  lg(rg) alpha_du alpha_pr  ls
 150 -2.6054535e-01 2.59e-01 1.19e+00  -6.0 3.21e+01  -9.1 1.00e+00 1.00e+00h  1
 151 -2.6055145e-01 2.56e-01 6.34e+01  -6.0 8.58e+02    -  1.76e-01 4.09e-02h  2
 152 -2.6056908e-01 2.64e-01 1.73e+02  -6.0 4.06e+02    -  1.00e+00 4.05e-01H  1
 153 -2.6059517e-01 9.50e-01 1.17e+02  -6.0 3.20e+02    -  5.61e-01 1.00e+00h  1
 154 -2.6062142e-01 5.38e-01 3.52e+02  -6.0 2.58e+02    -  9.70e-01 4.91e-01h  1
 155 -2.6065392e-01 6.17e-01 3.90e+02  -6.0 3.60e+02    -  3.54e-01 6.89e-01h  1
 156 -2.6065467e-01 6.53e-02 2.19e+04  -6.0 2.36e+01    -  4.52e-02 1.00e+00h  1
 157 -2.6064758e-01 4.19e-03 1.54e+01  -6.0 1.79e+01    -  1.00e+00 1.00e+00h  1
 158 -2.6064445e-01 4.08e-03 1.34e-02  -6.0 2.30e+01    -  1.00e+00 1.00e+00h  1
 159 -2.6064439e-01 2.62e-05 2.60e-05  -6.0 1.76e+00    -  1.00e+00 1.00e+00h  1
iter    objective    inf_pr   inf_du lg(mu)  ||d||  lg(rg) alpha_du alpha_pr  ls
 160 -2.6064439e-01 4.23e-10 2.49e-11  -6.0 1.90e-03    -  1.00e+00 1.00e+00h  1
 161 -2.6115905e-01 1.63e+00 4.74e+01  -7.5 2.24e+03    -  1.28e-01 2.37e-01f  1
 162 -2.6119255e-01 1.61e+00 6.41e+01  -7.5 2.77e+03    -  4.07e-01 2.53e-02h  1
 163 -2.6183682e-01 1.43e+01 2.76e+01  -7.5 3.55e+03    -  1.34e-01 4.52e-01h  1
 164 -2.6199346e-01 1.16e+01 2.06e+01  -7.5 2.00e+03    -  2.23e-01 2.05e-01h  1
 165 -2.6206466e-01 1.00e+01 5.51e+01  -7.5 1.52e+03    -  6.04e-01 1.39e-01h  1
 166 -2.6236825e-01 4.64e+00 1.63e+01  -7.5 1.56e+03    -  2.01e-01 7.22e-01h  1
 167 -2.6242752e-01 3.06e+00 8.40e+00  -7.5 1.36e+03    -  5.58e-01 5.95e-01h  1
 168 -2.6243993e-01 4.77e+01 7.40e+00  -7.5 3.68e+03    -  2.89e-01 5.54e-01h  1
 169 -2.6246311e-01 5.49e+01 4.27e+00  -7.5 2.43e+03    -  5.43e-01 8.00e-01h  1
iter    objective    inf_pr   inf_du lg(mu)  ||d||  lg(rg) alpha_du alpha_pr  ls
 170 -2.6247571e-01 4.61e+01 2.31e+00  -7.5 8.23e+02    -  4.28e-01 1.65e-01h  1
 171 -2.6249848e-01 3.45e+01 2.30e+00  -7.5 1.74e+03    -  5.60e-02 3.50e-01h  1
 172 -2.6251374e-01 2.07e+01 1.21e+00  -7.5 4.22e+02    -  4.68e-01 4.02e-01h  1
 173 -2.6252921e-01 3.69e-02 1.36e-02  -7.5 1.70e+01  -9.5 1.00e+00 1.00e+00h  1
 174 -2.6253151e-01 5.75e+01 2.81e+00  -7.5 2.73e+03    -  6.14e-02 1.00e+00H  1
 175 -2.6253066e-01 3.45e-02 3.91e-01  -7.5 9.51e+00 -10.0 1.69e-01 1.00e+00h  1
 176 -2.6253093e-01 4.00e-03 9.11e-05  -7.5 1.78e+01 -10.5 1.00e+00 1.00e+00h  1
 177 -2.6253097e-01 3.62e-02 6.58e-05  -7.5 5.36e+01 -11.0 1.00e+00 1.00e+00h  1
 178 -2.6253111e-01 3.44e-01 5.67e-04  -7.5 1.65e+02 -11.4 1.00e+00 1.00e+00h  1
 179 -2.6253150e-01 3.66e+00 6.17e-03  -7.5 5.37e+02 -11.9 1.00e+00 1.00e+00h  1
iter    objective    inf_pr   inf_du lg(mu)  ||d||  lg(rg) alpha_du alpha_pr  ls
 180 -2.6253359e-01 1.94e+01 4.15e-01  -7.5 2.01e+03 -12.4 7.10e-01 1.00e+00H  1
 181 -2.6253414e-01 3.01e+01 2.41e-01  -7.5 5.40e+03    -  2.27e-01 1.86e-01h  2
 182 -2.6253421e-01 2.99e+01 2.32e-01  -7.5 8.35e+03    -  2.05e-02 1.11e-02h  5
 183 -2.6253426e-01 2.14e+00 1.17e-02  -7.5 3.41e+02    -  1.00e+00 1.00e+00h  1
 184 -2.6253436e-01 2.50e-01 5.97e-02  -7.5 1.27e+02    -  5.67e-01 1.00e+00h  1
 185 -2.6253476e-01 4.54e+00 8.94e-01  -7.5 1.56e+04 -12.9 1.21e-01 3.42e-02h  3
 186 -2.6253520e-01 7.82e+00 3.22e-01  -7.5 1.20e+03    -  1.00e+00 5.00e-01h  2
 187 -2.6253539e-01 9.98e-01 9.10e-03  -7.5 2.43e+02    -  1.00e+00 1.00e+00h  1
 188 -2.6253541e-01 1.12e-02 9.69e-05  -7.5 2.55e+01    -  1.00e+00 1.00e+00h  1
 189 -2.6253541e-01 2.76e-06 3.30e-08  -7.5 4.26e-01    -  1.00e+00 1.00e+00h  1
iter    objective    inf_pr   inf_du lg(mu)  ||d||  lg(rg) alpha_du alpha_pr  ls
 190 -2.6253541e-01 2.84e-10 5.17e-13  -7.5 2.46e-05    -  1.00e+00 1.00e+00h  1
 191 -2.6253690e-01 6.46e-01 4.15e+00  -9.0 1.73e+03    -  5.16e-01 1.16e-01h  1
 192 -2.6253930e-01 3.64e+01 3.38e+00  -9.0 7.05e+03    -  2.36e-01 2.12e-01h  1
 193 -2.6254094e-01 4.84e+01 2.06e+00  -9.0 3.47e+03    -  2.95e-01 3.40e-01h  1
 194 -2.6254257e-01 3.89e+01 7.29e+01  -9.0 1.55e+03    -  4.53e-02 7.81e-01h  1
 195 -2.6254266e-01 3.83e+01 7.26e+01  -9.0 5.47e+03    -  1.69e-02 3.68e-02h  1
 196 -2.6254268e-01 3.72e+01 5.03e+01  -9.0 1.67e+03    -  3.85e-01 2.84e-02h  1
 197 -2.6254301e-01 3.09e+01 6.86e+03  -9.0 1.61e+03    -  1.72e-03 4.16e-01h  1
 198 -2.6254362e-01 3.87e+01 1.26e+03  -9.0 1.53e+03    -  1.59e-02 8.16e-01h  1
 199 -2.6254368e-01 2.87e+01 7.80e+02  -9.0 1.55e+03    -  1.37e-01 3.81e-01h  1
iter    objective    inf_pr   inf_du lg(mu)  ||d||  lg(rg) alpha_du alpha_pr  ls
 200 -2.6254386e-01 2.66e+01 5.65e+02  -9.0 1.81e+03    -  4.25e-01 2.76e-01h  1
 201 -2.6254402e-01 2.22e+01 4.02e+02  -9.0 1.26e+03    -  4.90e-02 2.89e-01h  1
 202 -2.6254403e-01 2.02e+01 3.66e+02  -9.0 5.59e+02    -  3.64e-02 8.98e-02h  1
 203 -2.6254406e-01 1.63e+01 2.95e+02  -9.0 5.36e+02    -  2.20e-01 1.94e-01h  1
 204 -2.6254407e-01 1.48e+01 2.67e+02  -9.0 5.98e+02    -  4.72e-02 9.46e-02h  1
 205 -2.6254419e-01 4.13e-01 2.25e+00  -9.0 1.75e+02    -  1.03e-01 1.00e+00h  1
 206 -2.6254421e-01 2.96e+00 2.90e-01  -9.0 3.72e+02    -  7.36e-01 1.00e+00h  1
 207 -2.6254421e-01 1.60e-01 1.98e-01  -9.0 6.60e+01    -  3.18e-01 1.00e+00h  1
 208 -2.6254422e-01 3.35e-01 3.59e-06  -9.0 8.43e+01 -11.6 1.00e+00 1.00e+00h  1
 209 -2.6254423e-01 2.54e-01 7.13e-06  -9.0 1.23e+02 -12.0 1.00e+00 1.00e+00h  1
iter    objective    inf_pr   inf_du lg(mu)  ||d||  lg(rg) alpha_du alpha_pr  ls
 210 -2.6254429e-01 3.03e+00 3.89e-03  -9.0 4.74e+02 -12.5 3.47e-01 1.00e+00h  1
 211 -2.6254459e-01 5.37e+01 1.01e-02  -9.0 2.11e+03 -13.0 6.79e-01 1.00e+00h  1
 212 -2.6254461e-01 5.37e+01 3.10e-02  -9.0 2.77e+04 -13.5 7.30e-02 3.39e-03h  5
 213 -2.6254535e-01 3.48e+01 2.23e-02  -9.0 2.62e+03 -13.0 3.38e-01 1.00e+00H  1
 214 -2.6254582e-01 3.49e+01 6.21e-02  -9.0 1.51e+03 -12.6 1.22e-01 1.00e+00h  1
 215 -2.6254593e-01 3.44e+01 2.04e-02  -9.0 4.90e+03 -13.1 2.46e-01 7.20e-02h  3
 216 -2.6254598e-01 3.44e+01 4.47e-02  -9.0 1.78e+04 -13.6 1.04e-01 7.68e-03h  4
 217 -2.6254599e-01 3.44e+01 5.75e-02  -9.0 6.68e+04    -  2.84e-02 4.59e-04h  6
 218 -2.6254607e-01 3.45e+01 2.76e-01  -9.0 8.58e+03    -  1.00e+00 3.12e-02h  3
 219 -2.6254663e-01 4.87e+01 6.49e-02  -9.0 1.71e+03    -  5.97e-01 1.00e+00h  1
iter    objective    inf_pr   inf_du lg(mu)  ||d||  lg(rg) alpha_du alpha_pr  ls
 220 -2.6254688e-01 4.46e+01 3.70e-02  -9.0 2.40e+03    -  4.24e-01 3.55e-01h  1
 221 -2.6254738e-01 3.90e+01 4.09e+00  -9.0 1.57e+03    -  2.59e-02 1.00e+00H  1
 222r-2.6254738e-01 3.90e+01 9.99e+02   1.3 0.00e+00 -13.1 0.00e+00 4.33e-07R 10
 223r-2.6254899e-01 3.90e+01 2.09e+05   1.3 7.11e+06    -  3.91e-10 9.17e-11f  1
 224 -2.6255117e-01 3.81e+01 1.73e+02  -9.0 1.01e+05    -  1.46e-05 2.17e-02h  1
 225 -2.6307259e-01 3.73e+01 1.69e+02  -9.0 1.25e+05    -  3.37e-06 2.29e-02h  1
 226 -2.6309919e-01 3.67e+01 1.67e+02  -9.0 2.31e+04    -  9.11e-02 1.57e-02h  1
 227 -2.6312403e-01 3.38e+01 1.52e+02  -9.0 1.16e+04    -  2.73e-02 8.79e-02h  1
 228 -2.6295481e-01 2.73e+01 1.06e+02  -9.0 3.35e+03    -  1.22e-04 3.02e-01h  1
 229 -2.6257128e-01 3.63e+01 6.26e+00  -9.0 1.29e+03    -  4.45e-01 1.00e+00h  1
iter    objective    inf_pr   inf_du lg(mu)  ||d||  lg(rg) alpha_du alpha_pr  ls
 230 -2.6256134e-01 1.13e+01 3.68e-01  -9.0 7.97e+02    -  1.67e-01 1.00e+00h  1
 231 -2.6256011e-01 1.10e+01 3.34e-01  -9.0 1.96e+03    -  7.74e-01 9.10e-02h  4
 232 -2.6254773e-01 1.05e+01 7.96e-03  -9.0 7.76e+02    -  1.00e+00 1.00e+00H  1
 233 -2.6254772e-01 8.49e-02 2.67e-04  -9.0 7.03e+01    -  1.00e+00 1.00e+00h  1
 234 -2.6254772e-01 3.51e-03 1.56e-05  -9.0 6.31e+01    -  1.00e+00 1.00e+00H  1
 235 -2.6254772e-01 5.35e-05 1.55e-08  -9.0 1.51e+00    -  1.00e+00 1.00e+00h  1
 236 -2.6254772e-01 7.26e-09 1.01e-12  -9.0 1.74e-02    -  1.00e+00 1.00e+00h  1

Number of Iterations....: 236

                                   (scaled)                 (unscaled)
Objective...............:  -2.6254772447208768e-01   -2.6254772447208768e-01
Dual infeasibility......:   1.0059122987410834e-12    1.0059122987410834e-12
Constraint violation....:   3.8858919375166719e-09    7.2614056989550591e-09
Complementarity.........:   9.0909091693358892e-10    9.0909091693358892e-10
Overall NLP error.......:   3.8858919375166719e-09    7.2614056989550591e-09


Number of objective function evaluations             = 358
Number of objective gradient evaluations             = 237
Number of equality constraint evaluations            = 358
Number of inequality constraint evaluations          = 359
Number of equality constraint Jacobian evaluations   = 240
Number of inequality constraint Jacobian evaluations = 240
Number of Lagrangian Hessian evaluations             = 236
Total CPU secs in IPOPT (w/o function evaluations)   =    474.466
Total CPU secs in NLP function evaluations           =      8.485

EXIT: Optimal Solution Found.
